data/solutions/planning/degenerate/moderate/sequential/degenerate_moderate_instance6_cplex.sol
Elapsed time: 0.09
Nodes explored: -
Nodes left: -
Relative gap: -
Upper bound: 63788442.0
Lower bound: -
C[0]=9112867.0
C[1]=9112775.0
C[2]=9111424.0
y[0]=0
y[1]=0
y[2]=0
y[3]=0
y[4]=1
y[5]=1
y[6]=2
y[7]=1
y[8]=0
y[9]=0
y[10]=1
y[11]=1
y[12]=2
y[13]=2
y[14]=2
y[15]=0
y[16]=2
y[17]=0
y[18]=1
y[19]=1
y[20]=2
y[21]=1
y[22]=1
y[23]=0
y[24]=1
