data/solutions/planning/degenerate/moderate/sequential/degenerate_moderate_instance6_cplex.log
Found incumbent of value 2.7337066e+07 after 0.00 sec. (0.01 ticks)
Tried aggregator 2 times.
Aggregator did 2 substitutions.
Reduced MIP has 28 rows, 76 columns, and 153 nonzeros.
Reduced MIP has 75 binaries, 0 generals, 0 SOSs, and 0 indicators.
Presolve time = 0.00 sec. (0.18 ticks)
Probing fixed 0 vars, tightened 4 bounds.
Probing time = 0.00 sec. (0.07 ticks)
Tried aggregator 1 time.
Reduced MIP has 28 rows, 76 columns, and 153 nonzeros.
Reduced MIP has 75 binaries, 1 generals, 0 SOSs, and 0 indicators.
Presolve time = 0.00 sec. (0.10 ticks)
Probing time = 0.00 sec. (0.05 ticks)
Clique table members: 25.
MIP emphasis: balance optimality and feasibility.
MIP search method: dynamic search.
Parallel mode: none, using 1 thread.
Root relaxation solution time = 0.00 sec. (0.07 ticks)

        Nodes                                         Cuts/
   Node  Left     Objective  IInf  Best Integer    Best Bound    ItCnt     Gap

*     0+    0                       2.73371e+07        0.0000           100.00%
      0     0  9112355.3333     5   2.73371e+07  9112355.3333        4   66.67%
*     0+    0                      9537160.0000  9112355.3333             4.45%
      0     0  9112355.3333     7  9537160.0000       Cuts: 5       10    4.45%
*     0+    0                      9330971.0000  9112355.3333             2.34%
      0     0  9112355.3333    11  9330971.0000     Covers: 3       12    2.34%
*     0+    0                      9256678.0000  9112355.3333             1.56%
*     0+    0                      9144196.0000  9112355.3333             0.35%
      0     2  9112355.3333     6  9144196.0000  9112355.3333       12    0.35%
Elapsed time = 0.00 sec. (2.05 ticks, tree = 0.01 MB, solutions = 5)
*    45    31      integral     0  9142896.0000  9112355.3333       96    0.33%
*    80+   48                      9141471.0000  9112355.3333             0.32%
*   122    62      integral     0  9132732.0000  9112355.3333      217    0.22%
*   200+   86                      9125811.0000  9112355.3333             0.15%
*   320+  116                      9124812.0000  9112355.3333             0.14%
*   420+  122                      9122356.0000  9112355.3333             0.11%
*   535   171      integral     0  9122055.0000  9112355.3333      833    0.11%
*   630+  168                      9116077.0000  9112355.3333             0.04%
*   659   176      integral     0  9115682.0000  9112355.3333     1024    0.04%
*   759+  197                      9114809.0000  9112355.3333             0.03%
*   900+  222                      9114102.0000  9112355.3333             0.02%
*   930+  226                      9112867.0000  9112355.3333             0.01%

Cover cuts applied:  83
Gomory fractional cuts applied:  1

Root node processing (before b&c):
  Real time             =    0.00 sec. (2.06 ticks)
Sequential b&c:
  Real time             =    0.08 sec. (67.38 ticks)
                          ------------
Total (root+branch&cut) =    0.09 sec. (69.44 ticks)
2 of 17 MIP starts provided solutions.
MIP start 'm1' defined initial solution with objective 9112775.0000.
Tried aggregator 2 times.
MIP Presolve eliminated 1 rows and 0 columns.
Aggregator did 1 substitutions.
Reduced MIP has 29 rows, 77 columns, and 155 nonzeros.
Reduced MIP has 75 binaries, 0 generals, 0 SOSs, and 0 indicators.
Presolve time = 0.00 sec. (0.15 ticks)
Probing time = 0.00 sec. (0.05 ticks)
Cover probing fixed 0 vars, tightened 3 bounds.
Tried aggregator 1 time.
Reduced MIP has 29 rows, 77 columns, and 155 nonzeros.
Reduced MIP has 75 binaries, 2 generals, 0 SOSs, and 0 indicators.
Presolve time = 0.00 sec. (0.10 ticks)
Probing time = 0.00 sec. (0.04 ticks)
Clique table members: 25.
MIP emphasis: balance optimality and feasibility.
MIP search method: dynamic search.
Parallel mode: none, using 1 thread.
Root relaxation solution time = 0.00 sec. (0.12 ticks)

        Nodes                                         Cuts/
   Node  Left     Objective  IInf  Best Integer    Best Bound    ItCnt     Gap

*     0+    0                      9112775.0000        0.0000           100.00%
      0     0  9112099.5000     5  9112775.0000  9112099.5000       42    0.01%

Root node processing (before b&c):
  Real time             =    0.00 sec. (0.68 ticks)
Sequential b&c:
  Real time             =    0.00 sec. (0.00 ticks)
                          ------------
Total (root+branch&cut) =    0.00 sec. (0.68 ticks)
1 of 1 MIP starts provided solutions.
MIP start 'm1' defined initial solution with objective 9111424.0000.
Tried aggregator 2 times.
MIP Presolve eliminated 3 rows and 0 columns.
Aggregator did 1 substitutions.
Reduced MIP has 29 rows, 77 columns, and 155 nonzeros.
Reduced MIP has 75 binaries, 0 generals, 0 SOSs, and 0 indicators.
Presolve time = 0.00 sec. (0.15 ticks)
Probing time = 0.00 sec. (0.05 ticks)
Cover probing fixed 0 vars, tightened 3 bounds.
Tried aggregator 1 time.
Reduced MIP has 29 rows, 77 columns, and 155 nonzeros.
Reduced MIP has 75 binaries, 2 generals, 0 SOSs, and 0 indicators.
Presolve time = 0.00 sec. (0.10 ticks)
Probing time = 0.00 sec. (0.04 ticks)
Clique table members: 25.
MIP emphasis: balance optimality and feasibility.
MIP search method: dynamic search.
Parallel mode: none, using 1 thread.
Root relaxation solution time = 0.00 sec. (0.10 ticks)

        Nodes                                         Cuts/
   Node  Left     Objective  IInf  Best Integer    Best Bound    ItCnt     Gap

*     0+    0                      9111424.0000        0.0000           100.00%
      0     0        cutoff        9111424.0000                     33    0.00%

Root node processing (before b&c):
  Real time             =    0.00 sec. (0.63 ticks)
Sequential b&c:
  Real time             =    0.00 sec. (0.00 ticks)
                          ------------
Total (root+branch&cut) =    0.00 sec. (0.63 ticks)
